582.58,64.63,73.81
514.55,73.17,83.57
525.06,71.71,81.9
519.95,72.41,82.7
542.26,69.43,79.3
509.72,73.87,84.36
522.31,72.09,82.33
500.5,75.23,85.92
537.19,70.09,80.05
540.8,69.62,79.51
503.74,74.74,85.36
551.65,68.25,77.95
508.53,74.04,84.56
565.15,66.62,76.09
534.87,70.39,80.4
585.9,64.26,73.39
543.46,69.28,79.13
528.31,71.27,81.39
561.85,67.01,76.54
571.35,65.9,75.26
